(set-logic QF_SLAH)

(declare-datatypes (
	(data_t 0)
	) (
	((c_data_t (sz Int)))
	)
)


(declare-heap (Int data_t) 
)

;; heap chunk
(define-fun hck ((?x Int) (?y Int)) Bool
	(and
		(>= (- ?y ?x) 2)
		(sep
			(pto ?x (c_data_t (- ?y ?x)))
			(blk (+ ?x 1) ?y)
		)
	)
)
;; heap list
(define-fun-rec hls ((?x Int) (?y Int)) Bool
	(or
		(and (= ?x ?y) (_ emp Int data_t))
		(exists ((?w Int))
			(sep
				(hck ?x ?w)
				(hls ?w ?y)
			)
		)
	)
)

;; variables
(declare-const hst Int)
(declare-const hen Int)
(declare-const x0 Int)
(declare-const y0 Int)
(declare-const x1 Int)
(declare-const y1 Int)
(declare-const x2 Int)
(declare-const y2 Int)
(declare-const x3 Int)
(declare-const y3 Int)
(declare-const z0_0 Int)
(declare-const sz0_0 Int)
(declare-const u0_0 Int)
(declare-const v0_0 Int)
(declare-const z0_1 Int)
(declare-const sz0_1 Int)
(declare-const u0_1 Int)
(declare-const v0_1 Int)
(declare-const z0_2 Int)
(declare-const sz0_2 Int)
(declare-const u0_2 Int)
(declare-const v0_2 Int)
(declare-const z0_3 Int)
(declare-const sz0_3 Int)
(declare-const u0_3 Int)
(declare-const v0_3 Int)
(declare-const z1_0 Int)
(declare-const sz1_0 Int)
(declare-const u1_0 Int)
(declare-const v1_0 Int)
(declare-const z1_1 Int)
(declare-const sz1_1 Int)
(declare-const u1_1 Int)
(declare-const v1_1 Int)
(declare-const z1_2 Int)
(declare-const sz1_2 Int)
(declare-const u1_2 Int)
(declare-const v1_2 Int)
(declare-const z1_3 Int)
(declare-const sz1_3 Int)
(declare-const u1_3 Int)
(declare-const v1_3 Int)
(declare-const z2_0 Int)
(declare-const sz2_0 Int)
(declare-const u2_0 Int)
(declare-const v2_0 Int)
(declare-const z2_1 Int)
(declare-const sz2_1 Int)
(declare-const u2_1 Int)
(declare-const v2_1 Int)
(declare-const z2_2 Int)
(declare-const sz2_2 Int)
(declare-const u2_2 Int)
(declare-const v2_2 Int)
(declare-const z2_3 Int)
(declare-const sz2_3 Int)
(declare-const u2_3 Int)
(declare-const v2_3 Int)

(assert
	(and
	(= x0 hst)
	(= y3 hen)
	(< x0 y3)
	(= y0 z0_0)
	(= y1 z1_0)
	(= y2 z2_0)
	(= v1_3 x2)
	(= v2_3 x3)
	(= (+ z0_0 sz0_0) x1)
	(= (+ z0_0 1) z0_1)
	(= (+ z0_1 1) z0_2)
	(= (+ z0_2 1) z0_3)
	(= (+ z1_0 sz1_0) x2)
	(= (+ z1_0 1) u1_1)
	(= v1_0 u1_1)
	(= v1_1 u1_2)
	(= v1_2 u1_3)
	(= v1_3 x2)
	(= (+ z2_0 sz2_0) x3)
	(= (+ z2_0 1) z2_1)
	(= (+ z2_1 1) z2_2)
	(= (+ z2_2 1) z2_3)
	(sep
		(hls x0 y0)
		(pto z0_0 (c_data_t sz0_0))
		(pto z0_1 (c_data_t sz0_1))
		(pto z0_2 (c_data_t sz0_2))
		(pto z0_3 (c_data_t sz0_3))
		(hls x1 y1)
		(pto z1_0 (c_data_t sz1_0))
		(blk u1_1 v1_1)
		(blk u1_2 v1_2)
		(blk u1_3 v1_3)
		(hls x2 y2)
		(pto z2_0 (c_data_t sz2_0))
		(pto z2_1 (c_data_t sz2_1))
		(pto z2_2 (c_data_t sz2_2))
		(pto z2_3 (c_data_t sz2_3))
		(hls x3 y3)
	)
))
(assert (not
	(sep
		(hls x0 y3)
		(hls y3 y3)
	)
))
;; end of problem
(check-sat)
;; 0.12s sat : the entl is false
